min: c;

c = 4.56516311185503 * u3_t10_h0 + 3.56624322151571 * u3_t10_h1 + 3.66575900467213 * u3_t4_h2 + 3.66575900467213 * u3_t10_h2 + 3.51571579015051 * u3_t4_h3 + 3.51571579015051 * u3_t10_h3 + 2.67910237226354 * u3_t4_h4 + 2.67910237226354 * u3_t10_h4 + 4.05129991201991 * u3_t4_h5 + 4.05129991201991 * u3_t10_h5 + 3.54810070470264 * u3_t4_h6 + 3.54810070470264 * u3_t10_h6 + 4.57571005097082 * u3_t4_h7 + 4.57571005097082 * u3_t9_h7 + 4.57571005097082 * u3_t10_h7 + 5.79132212639558 * u3_t4_h8 + 5.79132212639558 * u3_t9_h8 + 4.76588599812779 * u3_t4_h9 + 4.76588599812779 * u3_t9_h9 + 5.40049306649208 * u3_t4_h10 + 5.40049306649208 * u3_t6_h10 + 5.40049306649208 * u3_t9_h10 + 3.97633607076077 * u3_t3_h11 + 3.97633607076077 * u3_t4_h11 + 3.97633607076077 * u3_t6_h11 + 3.97633607076077 * u3_t9_h11 + 6.64381460208346 * u3_t3_h12 + 6.64381460208346 * u3_t4_h12 + 6.64381460208346 * u3_t6_h12 + 6.64381460208346 * u3_t9_h12 + 4.67508325746046 * u3_t3_h13 + 4.67508325746046 * u3_t4_h13 + 4.67508325746046 * u3_t5_h13 + 4.67508325746046 * u3_t6_h13 + 4.67508325746046 * u3_t9_h13 + 5.04790570941994 * u3_t3_h14 + 5.04790570941994 * u3_t4_h14 + 5.04790570941994 * u3_t5_h14 + 5.04790570941994 * u3_t6_h14 + 5.04790570941994 * u3_t9_h14 + 6.20497011378062 * u3_t2_h15 + 6.20497011378062 * u3_t3_h15 + 6.20497011378062 * u3_t4_h15 + 6.20497011378062 * u3_t5_h15 + 6.20497011378062 * u3_t6_h15 + 6.20497011378062 * u3_t9_h15 + 5.66944012764069 * u3_t2_h16 + 5.66944012764069 * u3_t4_h16 + 5.66944012764069 * u3_t5_h16 + 5.66944012764069 * u3_t6_h16 + 5.66944012764069 * u3_t9_h16 + 6.75545470549669 * u3_t2_h17 + 6.75545470549669 * u3_t4_h17 + 6.75545470549669 * u3_t6_h17 + 6.75545470549669 * u3_t9_h17 + 6.55241284560354 * u3_t2_h18 + 6.55241284560354 * u3_t6_h18 + 6.55241284560354 * u3_t9_h18 + 5.82674037410558 * u3_t2_h19 + 5.82674037410558 * u3_t9_h19 + 6.04261734594422 * u3_t1_h20 + 6.04261734594422 * u3_t2_h20 + 6.04261734594422 * u3_t8_h20 + 6.04261734594422 * u3_t9_h20 + 5.05966048005336 * u3_t1_h21 + 5.05966048005336 * u3_t2_h21 + 5.05966048005336 * u3_t7_h21 + 5.05966048005336 * u3_t8_h21 + 5.05966048005336 * u3_t9_h21 + 5.18324742472157 * u3_t1_h22 + 5.18324742472157 * u3_t7_h22 + 5.18324742472157 * u3_t8_h22 + 5.20597370976574 * u3_t1_h23 + 5.20597370976574 * u3_t7_h23 + 5.20597370976574 * u3_t8_h23;
0 <= u3_t1_h20 <= 1;
0 <= u3_t1_h21 <= 1;
0 <= u3_t1_h22 <= 1;
0 <= u3_t1_h23 <= 1;
u3_t1_h20 + u3_t1_h21 + u3_t1_h22 + u3_t1_h23 = 2;
0 <= u3_t2_h15 <= 1;
0 <= u3_t2_h16 <= 1;
0 <= u3_t2_h17 <= 1;
0 <= u3_t2_h18 <= 1;
0 <= u3_t2_h19 <= 1;
0 <= u3_t2_h20 <= 1;
0 <= u3_t2_h21 <= 1;
u3_t2_h15 + u3_t2_h16 + u3_t2_h17 + u3_t2_h18 + u3_t2_h19 + u3_t2_h20 + u3_t2_h21 = 3;
0 <= u3_t3_h11 <= 1;
0 <= u3_t3_h12 <= 1;
0 <= u3_t3_h13 <= 1;
0 <= u3_t3_h14 <= 1;
0 <= u3_t3_h15 <= 1;
u3_t3_h11 + u3_t3_h12 + u3_t3_h13 + u3_t3_h14 + u3_t3_h15 = 2;
0 <= u3_t4_h2 <= 1;
0 <= u3_t4_h3 <= 1;
0 <= u3_t4_h4 <= 1;
0 <= u3_t4_h5 <= 1;
0 <= u3_t4_h6 <= 1;
0 <= u3_t4_h7 <= 1;
0 <= u3_t4_h8 <= 1;
0 <= u3_t4_h9 <= 1;
0 <= u3_t4_h10 <= 1;
0 <= u3_t4_h11 <= 1;
0 <= u3_t4_h12 <= 1;
0 <= u3_t4_h13 <= 1;
0 <= u3_t4_h14 <= 1;
0 <= u3_t4_h15 <= 1;
0 <= u3_t4_h16 <= 1;
0 <= u3_t4_h17 <= 1;
u3_t4_h2 + u3_t4_h3 + u3_t4_h4 + u3_t4_h5 + u3_t4_h6 + u3_t4_h7 + u3_t4_h8 + u3_t4_h9 + u3_t4_h10 + u3_t4_h11 + u3_t4_h12 + u3_t4_h13 + u3_t4_h14 + u3_t4_h15 + u3_t4_h16 + u3_t4_h17 = 3;
0 <= u3_t5_h13 <= 1;
0 <= u3_t5_h14 <= 1;
0 <= u3_t5_h15 <= 1;
0 <= u3_t5_h16 <= 1;
u3_t5_h13 + u3_t5_h14 + u3_t5_h15 + u3_t5_h16 = 2;
0 <= u3_t6_h10 <= 1;
0 <= u3_t6_h11 <= 1;
0 <= u3_t6_h12 <= 1;
0 <= u3_t6_h13 <= 1;
0 <= u3_t6_h14 <= 1;
0 <= u3_t6_h15 <= 1;
0 <= u3_t6_h16 <= 1;
0 <= u3_t6_h17 <= 1;
0 <= u3_t6_h18 <= 1;
u3_t6_h10 + u3_t6_h11 + u3_t6_h12 + u3_t6_h13 + u3_t6_h14 + u3_t6_h15 + u3_t6_h16 + u3_t6_h17 + u3_t6_h18 = 2;
0 <= u3_t7_h21 <= 1;
0 <= u3_t7_h22 <= 1;
0 <= u3_t7_h23 <= 1;
u3_t7_h21 + u3_t7_h22 + u3_t7_h23 = 2;
0 <= u3_t8_h20 <= 1;
0 <= u3_t8_h21 <= 1;
0 <= u3_t8_h22 <= 1;
0 <= u3_t8_h23 <= 1;
u3_t8_h20 + u3_t8_h21 + u3_t8_h22 + u3_t8_h23 = 1;
0 <= u3_t9_h7 <= 1;
0 <= u3_t9_h8 <= 1;
0 <= u3_t9_h9 <= 1;
0 <= u3_t9_h10 <= 1;
0 <= u3_t9_h11 <= 1;
0 <= u3_t9_h12 <= 1;
0 <= u3_t9_h13 <= 1;
0 <= u3_t9_h14 <= 1;
0 <= u3_t9_h15 <= 1;
0 <= u3_t9_h16 <= 1;
0 <= u3_t9_h17 <= 1;
0 <= u3_t9_h18 <= 1;
0 <= u3_t9_h19 <= 1;
0 <= u3_t9_h20 <= 1;
0 <= u3_t9_h21 <= 1;
u3_t9_h7 + u3_t9_h8 + u3_t9_h9 + u3_t9_h10 + u3_t9_h11 + u3_t9_h12 + u3_t9_h13 + u3_t9_h14 + u3_t9_h15 + u3_t9_h16 + u3_t9_h17 + u3_t9_h18 + u3_t9_h19 + u3_t9_h20 + u3_t9_h21 = 2;
0 <= u3_t10_h0 <= 1;
0 <= u3_t10_h1 <= 1;
0 <= u3_t10_h2 <= 1;
0 <= u3_t10_h3 <= 1;
0 <= u3_t10_h4 <= 1;
0 <= u3_t10_h5 <= 1;
0 <= u3_t10_h6 <= 1;
0 <= u3_t10_h7 <= 1;
u3_t10_h0 + u3_t10_h1 + u3_t10_h2 + u3_t10_h3 + u3_t10_h4 + u3_t10_h5 + u3_t10_h6 + u3_t10_h7 = 3;
